p cnf 14 31
-14 11 7 0
14 10 -5 0
14 -10 4 0
-14 -8 1 0
14 -8 -1 0
13 -12 -9 0
13 -12 6 0
13 -11 -10 0
13 -11 -4 0
-13 8 7 0
13 -8 6 0
-12 10 -4 0
-12 10 1 0
12 -8 -2 0
12 -7 -3 0
12 6 -3 0
12 5 -1 0
-12 4 3 0
11 -10 -8 0
-11 3 -1 0
-10 9 1 0
10 8 -4 0
10 6 2 0
9 7 4 0
9 -4 1 0
-9 -2 1 0
-8 -7 2 0
7 3 -2 0
6 2 -1 0
6 -2 1 0
-3 -2 1 0
